HUN,8,6,19
2,16,0,16,4,7,1,2,5,13,3,9
2,13,0,19,5,14,3,3,4,28,1,19
0,9,1,16,3,22,5,21,2,24,4,20
3,17,4,24,5,16,0,25,1,6,2,13
4,9,2,16,5,4,1,9,3,3,0,29
3,20,2,20,0,23,1,4,4,7,5,22
0,9,5,11,2,9,4,20,1,21,3,24
0,11,2,4,5,23,4,25,3,25,1,30
